8
5
3
[[25.0, 21.7, 21.7, 13.3, 8.3, 18.3, 8.3, 21.7],
[6.7, 16.7, 11.7, 20.0, 15.0, 15.0, 8.3, 15.0],
[6.7, 16.7, 15.7, 13.3, 13.3, 16.7, 21.7, 18.3],
[25.0, 8.3, 11.7, 25.3, 16.7, 21.7, 20.0, 18.3],
[18.3, 21.7, 13.3, 6.7, 21.7, 23.3, 18.3, 8.3]]
